20J6M/DAT/20J6MNLL-11.dat
20 6
20.084 20.084
22.6111 22.6111
18.9251 18.9251
22.7686 22.7686
23.012 23.012
20.3372 20.3372
21.4051 21.4051
27.1631 27.1631
23.8038 23.8038
32.7583 32.7583
25.737 25.737
27.59 27.59
19.3176 19.3176
28.2462 28.2462
26.0411 26.0411
18.1436 18.1436
26.9612 26.9612
29.4153 29.4153
24.1799 24.1799
23.6447 23.6447
80.3575