20J6M/SOL/20J6MNLL-11.sol
solution status: optimal solution found
objective value:                     80.3574833333333
x#1#3                                               1 	(obj:0)
x#2#4                                               1 	(obj:0)
x#3#3                                               1 	(obj:0)
x#4#4                                               1 	(obj:0)
x#5#1                               0.363784836896691 	(obj:0)
x#5#4                               0.636215163103309 	(obj:0)
x#6#4                                               1 	(obj:0)
x#7#3                                               1 	(obj:0)
x#8#5                                               1 	(obj:0)
x#9#6                                               1 	(obj:0)
x#10#1                              0.893786205836892 	(obj:0)
x#10#2                              0.106213794163108 	(obj:0)
x#11#2                                              1 	(obj:0)
x#12#1                              0.673443880633079 	(obj:0)
x#12#5                              0.326556119366921 	(obj:0)
x#13#3                                              1 	(obj:0)
x#14#6                                              1 	(obj:0)
x#15#5                                              1 	(obj:0)
x#16#5                                              1 	(obj:0)
x#17#2                                              1 	(obj:0)
x#18#1                             0.0376612397856439 	(obj:0)
x#18#6                              0.962338760214356 	(obj:0)
x#19#2                                              1 	(obj:0)
x#20#1                              0.973538114954584 	(obj:0)
x#20#3                             0.0264618850454161 	(obj:0)
z                                    80.3574833333333 	(obj:1)
